% File represents an instance of a Composite Structure problem to be solved by a CP framework
% Created on 2025-03-26 10:41:26.709
T = 50;
n = 16;
m = 24;
edges = [(1, 2),
(5, 6),
(9, 10),
(13, 14),
(2, 3),
(6, 7),
(10, 11),
(14, 15),
(3, 4),
(7, 8),
(11, 12),
(16, 15),
(5, 1),
(9, 5),
(9, 13),
(6, 2),
(10, 6),
(10, 14),
(7, 3),
(11, 7),
(11, 15),
(8, 4),
(12, 8),
(16, 12)];
counts = [|8, 10, 8, 14,
|8, 6, 8, 12,
|8, 6, 8, 8,
|6, 4, 6, 8,
|8, 14, 8, 14,
|8, 8, 8, 14,
|8, 6, 8, 10,
|6, 6, 6, 10,
|10, 14, 10, 16,
|10, 10, 10, 14,
|8, 10, 8, 12,
|6, 8, 6, 12,
|10, 12, 10, 12,
|10, 10, 10, 10,
|8, 8, 8, 10,
|8, 8, 8, 12|];
